c clasp version 2.1.1
c Reading from pb_400_02.cnf
c Solving...
s UNKNOWN

c TIME LIMIT    : 1
c Models        : 0+    
c Time          : 18000.000s (Solving: 17997.37s 1st Model: 0.00s Unsat: 0.00s)
c CPU Time      : 17971.350s
c Choices       : 56470781
c Conflicts     : 23368441
c Restarts      : 29504  (Average: 792.04 Last: 23366700)

c Variables     : 612968 (Eliminated: 194411 Frozen:    0)
c Constraints   : 807823 (Binary: 62.6% Ternary: 36.7% Other:  0.7%)
c Lemmas        : 23368441 (Binary:  0.0% Ternary:  0.1% Other: 99.9%)
c   Conflict    : 23368441 (Average Length: 66.5) 
c   Loop        : 0      (Average Length: 0.0) 
c   Other       : 0      (Average Length: 0.0)
c   Deleted     : 23215044
